
  32    4
  10   10   10   10

   0   0   0   0   0   1 2 
   4   1   0   1   1   1 3 
   9   2   1   0   3   1 4 
  10   0   5   4   5   1 5 
  10   3   3   0   5   1 6 
   3   8   0   4   1   1 7 
   6   2   0   3   6   1 8 
   7   0   4   7   4   1 9 
   8   5   4   0   5   2 12 10 
   9   6   4   3   0   1 11 
   5   0   7   4   4   1 13 
   5   4   1   8   0   1 13 
   3   2   0   4   3   1 14 
   5   7   4   2   0   1 15 
   4   5   0   2   2   1 16 
   4   1   4   0   2   1 17 
   3   0   5   4   9   1 18 
  10   3   2   0   4   2 21 19 
   6   5   7   5   0   1 20 
   5   5   4   0   3   2 29 22 
  10   4   0   4   5   2 29 24 
   7   0   3   6   3   1 23 
   9   3   0   3   6   1 24 
   4   0   4   6   5   1 25 
   7   0   4   1   4   1 26 
   2   5   0   4   4   1 27 
   9   5   4   0   5   1 28 
   4   0   4   5   3   1 30 
   6   6   4   0   3   1 30 
   6   0   6   4   5   1 31 
   2   2   0   4   4   1 32
   0   0   0   0   0   0 
